MARKOV
233
 2 2 2 2 2 2 2 2 2 2 2 2 2 2 2 2 2 2 2 2 2 2 2 2 2 2 2 2 2 2 2 2 2 2 2 2 2 2 2 2 2 2 2 2 2 2 2 2 2 2 2 2 2 2 2 2 2 2 2 2 2 2 2 2 2 2 2 2 2 2 2 2 2 2 2 2 2 2 2 2 2 2 2 2 2 2 2 2 2 2 2 2 2 2 2 2 2 2 2 2 2 2 2 2 2 2 2 2 2 2 2 2 2 2 2 2 2 2 2 2 2 2 2 2 2 2 2 2 2 2 2 2 2 2 2 2 2 2 2 2 2 2 2 2 2 2 2 2 2 2 2 2 2 2 2 2 2 2 2 2 2 2 2 2 2 2 2 2 2 2 2 2 2 2 2 2 2 2 2 2 2 2 2 2 2 2 2 2 2 2 2 2 2 2 2 2 2 2 2 2 2 2 2 2 2 2 2 2 2 2 2 2 2 2 2 2 2 2 2 2 2 2 2 2 2 2 2 2 2 2 2 2 2
873
1	0 
1	1 
1	2 
1	3 
1	4 
1	5 
1	6 
1	7 
1	8 
1	9 
1	10 
1	11 
1	12 
1	13 
1	14 
1	15 
1	16 
1	17 
1	18 
1	19 
1	20 
1	21 
1	22 
1	23 
1	24 
1	25 
1	26 
1	27 
1	28 
1	29 
1	30 
1	31 
1	32 
1	33 
1	34 
1	35 
1	36 
1	37 
1	38 
1	39 
1	40 
1	41 
1	42 
1	43 
1	44 
1	45 
1	46 
1	47 
1	48 
1	49 
1	50 
1	51 
1	52 
1	53 
1	54 
1	55 
1	56 
1	57 
1	58 
1	59 
1	60 
1	61 
1	62 
1	63 
1	64 
1	65 
1	66 
1	67 
1	68 
1	69 
1	70 
1	71 
1	72 
1	73 
1	74 
1	75 
1	76 
1	77 
1	78 
1	79 
1	80 
1	81 
1	82 
1	83 
1	84 
1	85 
1	86 
1	87 
1	88 
1	89 
1	90 
1	91 
1	92 
1	93 
1	94 
1	95 
1	96 
1	97 
1	98 
1	99 
1	100 
1	101 
1	102 
1	103 
1	104 
1	105 
1	106 
1	107 
1	108 
1	109 
1	110 
1	111 
1	112 
1	113 
1	114 
1	115 
1	116 
1	117 
1	118 
1	119 
1	120 
1	121 
1	122 
1	123 
1	124 
1	125 
1	126 
1	127 
1	128 
1	129 
1	130 
1	131 
1	132 
1	133 
1	134 
1	135 
1	136 
1	137 
1	138 
1	139 
1	140 
1	141 
1	142 
1	143 
1	144 
1	145 
1	146 
1	147 
1	148 
1	149 
1	150 
1	151 
1	152 
1	153 
1	154 
1	155 
1	156 
1	157 
1	158 
1	159 
1	160 
1	161 
1	162 
1	163 
1	164 
1	165 
1	166 
1	167 
1	168 
1	169 
1	170 
1	171 
1	172 
1	173 
1	174 
1	175 
1	176 
1	177 
1	178 
1	179 
1	180 
1	181 
1	182 
1	183 
1	184 
1	185 
1	186 
1	187 
1	188 
1	189 
1	190 
1	191 
1	192 
1	193 
1	194 
1	195 
1	196 
1	197 
1	198 
1	199 
1	200 
1	201 
1	202 
1	203 
1	204 
1	205 
1	206 
1	207 
1	208 
1	209 
1	210 
1	211 
1	212 
1	213 
1	214 
1	215 
1	216 
1	217 
1	218 
1	219 
1	220 
1	221 
1	222 
1	223 
1	224 
1	225 
1	226 
1	227 
1	228 
1	229 
1	230 
1	231 
1	232 
2	1 2 
2	1 4 
2	1 6 
2	1 7 
2	1 8 
2	2 3 
2	2 5 
2	2 6 
2	2 7 
2	2 34 
2	3 5 
2	3 34 
2	3 116 
2	3 120 
2	3 231 
2	4 6 
2	4 8 
2	4 46 
2	5 6 
2	5 116 
2	5 117 
2	5 121 
2	5 124 
2	6 46 
2	6 121 
2	7 34 
2	9 10 
2	9 11 
2	9 12 
2	10 11 
2	10 84 
2	10 86 
2	11 12 
2	11 14 
2	11 86 
2	11 183 
2	12 14 
2	12 16 
2	12 17 
2	12 213 
2	13 14 
2	13 185 
2	13 186 
2	13 213 
2	13 215 
2	13 216 
2	14 183 
2	14 185 
2	14 213 
2	15 16 
2	15 175 
2	15 177 
2	15 213 
2	15 216 
2	16 17 
2	16 150 
2	16 177 
2	16 213 
2	17 148 
2	17 150 
2	18 20 
2	18 22 
2	18 73 
2	18 195 
2	19 20 
2	19 21 
2	19 134 
2	19 160 
2	19 201 
2	19 228 
2	20 21 
2	20 22 
2	20 195 
2	20 228 
2	21 22 
2	21 159 
2	21 198 
2	21 201 
2	22 158 
2	22 159 
2	23 24 
2	23 27 
2	23 42 
2	23 69 
2	23 76 
2	24 26 
2	24 27 
2	24 40 
2	24 42 
2	24 95 
2	24 180 
2	25 27 
2	25 139 
2	25 144 
2	25 180 
2	25 181 
2	26 95 
2	26 180 
2	26 182 
2	27 76 
2	27 78 
2	27 144 
2	27 180 
2	28 30 
2	28 44 
2	28 109 
2	29 30 
2	29 31 
2	29 36 
2	29 38 
2	30 31 
2	30 44 
2	31 36 
2	31 44 
2	31 170 
2	31 173 
2	32 33 
2	32 47 
2	32 123 
2	33 122 
2	33 123 
2	33 125 
2	33 126 
2	34 231 
2	35 36 
2	35 37 
2	35 38 
2	35 39 
2	35 188 
2	36 38 
2	36 39 
2	36 170 
2	37 38 
2	39 170 
2	39 187 
2	39 188 
2	40 41 
2	40 42 
2	40 51 
2	40 52 
2	40 95 
2	40 97 
2	41 95 
2	41 96 
2	41 97 
2	41 99 
2	42 51 
2	42 69 
2	43 44 
2	43 45 
2	43 106 
2	43 168 
2	43 173 
2	44 106 
2	44 109 
2	44 173 
2	45 106 
2	45 168 
2	45 169 
2	45 174 
2	45 199 
2	45 200 
2	46 47 
2	46 121 
2	47 121 
2	47 123 
2	48 49 
2	48 62 
2	48 96 
2	49 50 
2	49 95 
2	49 96 
2	49 182 
2	50 179 
2	50 182 
2	51 52 
2	51 69 
2	51 135 
2	51 136 
2	52 53 
2	52 81 
2	52 97 
2	52 135 
2	53 81 
2	53 82 
2	53 97 
2	53 98 
2	54 56 
2	54 57 
2	54 58 
2	54 61 
2	55 57 
2	55 58 
2	55 59 
2	56 61 
2	56 128 
2	56 224 
2	57 58 
2	58 59 
2	58 60 
2	58 61 
2	59 60 
2	59 203 
2	59 205 
2	60 61 
2	60 202 
2	60 205 
2	60 225 
2	61 224 
2	61 225 
2	62 63 
2	62 96 
2	62 189 
2	62 190 
2	63 189 
2	63 190 
2	63 191 
2	64 65 
2	64 67 
2	64 130 
2	64 145 
2	65 66 
2	65 130 
2	65 145 
2	65 176 
2	65 206 
2	65 209 
2	66 68 
2	66 136 
2	66 176 
2	66 206 
2	66 214 
2	67 129 
2	67 130 
2	67 131 
2	67 145 
2	67 147 
2	67 149 
2	68 69 
2	68 70 
2	68 136 
2	68 184 
2	68 214 
2	69 70 
2	69 76 
2	69 136 
2	70 76 
2	70 165 
2	70 184 
2	70 220 
2	71 72 
2	71 73 
2	71 74 
2	71 75 
2	72 73 
2	72 75 
2	72 195 
2	72 196 
2	73 195 
2	74 75 
2	74 166 
2	75 166 
2	75 167 
2	75 194 
2	75 196 
2	76 77 
2	76 78 
2	76 220 
2	77 78 
2	77 115 
2	77 217 
2	77 220 
2	77 221 
2	78 79 
2	78 115 
2	78 144 
2	79 111 
2	79 115 
2	79 119 
2	79 139 
2	79 141 
2	79 144 
2	79 230 
2	80 82 
2	80 83 
2	80 138 
2	80 169 
2	80 171 
2	81 82 
2	81 135 
2	81 137 
2	81 138 
2	82 98 
2	82 138 
2	82 171 
2	83 138 
2	83 153 
2	83 155 
2	83 169 
2	83 199 
2	84 86 
2	84 87 
2	84 93 
2	85 86 
2	85 162 
2	85 164 
2	85 183 
2	85 185 
2	85 186 
2	86 87 
2	86 88 
2	86 94 
2	86 164 
2	86 183 
2	87 88 
2	87 90 
2	87 93 
2	88 90 
2	88 91 
2	88 92 
2	88 94 
2	89 94 
2	89 161 
2	89 162 
2	89 163 
2	89 164 
2	90 91 
2	90 93 
2	90 204 
2	91 92 
2	91 202 
2	91 204 
2	91 210 
2	92 94 
2	92 100 
2	92 163 
2	92 210 
2	93 203 
2	94 163 
2	94 164 
2	95 96 
2	95 182 
2	96 99 
2	96 190 
2	97 98 
2	97 99 
2	98 99 
2	98 171 
2	98 190 
2	99 190 
2	100 102 
2	100 105 
2	100 163 
2	100 210 
2	101 103 
2	101 110 
2	101 122 
2	101 211 
2	101 219 
2	102 105 
2	102 161 
2	102 163 
2	102 221 
2	102 222 
2	103 104 
2	103 105 
2	103 110 
2	103 112 
2	103 211 
2	103 212 
2	103 218 
2	104 105 
2	104 218 
2	104 222 
2	105 210 
2	105 212 
2	105 222 
2	106 108 
2	106 109 
2	106 198 
2	106 200 
2	107 108 
2	107 109 
2	107 158 
2	107 159 
2	108 109 
2	108 159 
2	108 198 
2	110 112 
2	110 114 
2	110 124 
2	110 219 
2	111 113 
2	111 114 
2	111 115 
2	111 118 
2	111 119 
2	112 113 
2	112 114 
2	112 218 
2	113 114 
2	113 115 
2	113 217 
2	113 218 
2	114 117 
2	114 118 
2	114 124 
2	115 217 
2	116 117 
2	116 118 
2	116 120 
2	117 118 
2	117 124 
2	118 119 
2	118 120 
2	119 120 
2	119 141 
2	119 142 
2	119 230 
2	120 142 
2	120 230 
2	120 231 
2	120 232 
2	121 123 
2	121 124 
2	122 123 
2	122 125 
2	122 211 
2	122 219 
2	123 124 
2	123 219 
2	124 219 
2	125 126 
2	125 127 
2	125 211 
2	125 226 
2	126 127 
2	127 128 
2	127 223 
2	127 226 
2	128 223 
2	128 224 
2	129 130 
2	129 131 
2	129 132 
2	129 207 
2	130 207 
2	130 208 
2	130 209 
2	131 132 
2	131 146 
2	131 149 
2	131 151 
2	131 229 
2	132 133 
2	132 134 
2	132 207 
2	132 228 
2	132 229 
2	133 134 
2	133 197 
2	133 201 
2	133 207 
2	134 160 
2	134 193 
2	134 228 
2	135 136 
2	135 137 
2	135 152 
2	136 152 
2	136 206 
2	137 138 
2	137 152 
2	137 153 
2	137 154 
2	138 153 
2	139 140 
2	139 141 
2	139 144 
2	139 181 
2	140 141 
2	140 142 
2	140 143 
2	140 178 
2	140 181 
2	141 142 
2	141 230 
2	142 143 
2	142 230 
2	142 232 
2	143 178 
2	143 232 
2	145 147 
2	145 175 
2	145 176 
2	145 177 
2	146 148 
2	146 149 
2	146 151 
2	146 156 
2	146 157 
2	146 229 
2	147 148 
2	147 149 
2	147 150 
2	147 177 
2	148 149 
2	148 150 
2	148 156 
2	150 177 
2	151 157 
2	151 167 
2	151 194 
2	151 229 
2	152 154 
2	152 206 
2	152 209 
2	153 154 
2	153 155 
2	153 197 
2	153 208 
2	154 208 
2	154 209 
2	155 197 
2	155 199 
2	155 201 
2	156 157 
2	157 167 
2	158 159 
2	159 198 
2	160 201 
2	161 162 
2	161 163 
2	161 165 
2	161 221 
2	162 164 
2	162 165 
2	162 184 
2	162 186 
2	165 184 
2	165 220 
2	166 167 
2	167 194 
2	168 169 
2	168 170 
2	168 172 
2	168 173 
2	169 171 
2	169 172 
2	169 199 
2	170 172 
2	170 173 
2	170 187 
2	171 172 
2	171 190 
2	171 191 
2	172 187 
2	172 191 
2	174 199 
2	174 200 
2	175 176 
2	175 177 
2	175 216 
2	176 214 
2	176 215 
2	176 216 
2	178 179 
2	178 181 
2	179 181 
2	179 182 
2	180 181 
2	180 182 
2	181 182 
2	183 185 
2	184 186 
2	184 214 
2	184 215 
2	185 186 
2	186 215 
2	187 188 
2	187 191 
2	187 192 
2	188 192 
2	189 191 
2	189 192 
2	190 191 
2	191 192 
2	193 195 
2	193 196 
2	193 228 
2	193 229 
2	194 196 
2	194 229 
2	195 196 
2	195 228 
2	196 229 
2	197 201 
2	197 207 
2	197 208 
2	198 200 
2	198 201 
2	199 200 
2	199 201 
2	200 201 
2	202 204 
2	202 205 
2	202 210 
2	202 225 
2	203 204 
2	203 205 
2	204 205 
2	206 209 
2	207 208 
2	208 209 
2	210 212 
2	210 225 
2	210 227 
2	211 212 
2	211 223 
2	211 226 
2	212 223 
2	212 227 
2	213 216 
2	214 215 
2	215 216 
2	217 218 
2	217 221 
2	217 222 
2	218 222 
2	220 221 
2	221 222 
2	223 224 
2	223 226 
2	223 227 
2	224 225 
2	224 227 
2	225 227 
2	228 229 
2	231 232 
0	

2
 0.252912 1
2
 1 0.0919381
2
 1 0.116398
2
 1 0.133301
2
 1 0.43384
2
 1 0.113778
2
 1 0.290007
2
 1 0.141379
2
 1 3.50182e-09
2
 1 0.0789081
2
 1 0.0365036
2
 1 0.326662
2
 1 0.309623
2
 0.0595157 1
2
 1 0.829568
2
 0.11338 1
2
 1 0.416005
2
 1 0.0735923
2
 1 0.0523572
2
 1 0.863176
2
 1 0.264935
2
 1 0.567534
2
 1 0.177725
2
 0.0200127 1
2
 0.184819 1
2
 0.108439 1
2
 0.0548882 1
2
 0.0770497 1
2
 1 0.161412
2
 1 0.0715989
2
 1 0.135946
2
 1 0.245503
2
 0.444683 1
2
 0.254341 1
2
 1 0.0511333
2
 1 0.238013
2
 1 0.622051
2
 1 0.108137
2
 1 0.099807
2
 1 0.242303
2
 0.116141 1
2
 0.117796 1
2
 0.13627 1
2
 1 0.417169
2
 1 0.384146
2
 0.581213 1
2
 0.0566492 1
2
 0.383806 1
2
 1 0.0864594
2
 1 0.810053
2
 1 0.615128
2
 0.0137033 1
2
 0.0662517 1
2
 0.0952961 1
2
 1 0.0298847
2
 1 0.0403079
2
 1 0.0950221
2
 1 0.029872
2
 1 0.0440712
2
 1 0.271513
2
 1 0.0688012
2
 1 0.0731081
2
 1 0.103956
2
 1 0.249154
2
 0.0734407 1
2
 0.236231 1
2
 0.0278542 1
2
 0.0232307 1
2
 0.0624536 1
2
 0.0258785 1
2
 0.0185402 1
2
 1 0.072578
2
 1 0.0715771
2
 1 0.0791709
2
 1 0.0911329
2
 1 0.064457
2
 0.0357058 1
2
 0.0436779 1
2
 0.0374854 1
2
 0.0186201 1
2
 0.162807 1
2
 0.0255225 1
2
 0.213724 1
2
 0.0855716 1
2
 1 0.0560182
2
 0.137506 1
2
 1 0.499076
2
 1 0.0439367
2
 1 0.124587
2
 0.103714 1
2
 1 0.0387638
2
 1 0.336687
2
 1 0.856686
2
 1 0.0382168
2
 0.4358 1
2
 0.0364651 1
2
 1 0.808138
2
 0.153795 1
2
 0.475364 1
2
 1 0.997568
2
 1 0.483137
2
 1 0.244746
2
 0.148718 1
2
 1 0.188536
2
 1 0.574287
2
 1 0.422401
2
 1 0.246347
2
 1 0.346104
2
 1 0.184091
2
 1 0.0866093
2
 1 0.438086
2
 0.287827 1
2
 0.856479 1
2
 0.675814 1
2
 0.939832 1
2
 0.00648973 1
2
 1 0.463597
2
 1 0.489274
2
 1 0.369811
2
 0.916379 1
2
 1 0.232668
2
 0.246693 1
2
 1 0.734676
2
 0.173189 1
2
 1 0.326766
2
 1 0.793793
2
 1 0.520943
2
 1 0.265161
2
 1 0.205364
2
 0.199698 1
2
 0.031689 1
2
 1 0.304134
2
 0.265323 1
2
 0.165658 1
2
 1 0.313287
2
 0.037665 1
2
 0.00501294 1
2
 0.223803 1
2
 0.221118 1
2
 0.371298 1
2
 1 0.315961
2
 1 0.917362
2
 1 0.114021
2
 1 0.15512
2
 0.0130056 1
2
 0.0250556 1
2
 1 0.0619892
2
 0.562698 1
2
 1 0.0959308
2
 0.952303 1
2
 0.324716 1
2
 1 0.0618156
2
 0.094384 1
2
 0.0431801 1
2
 0.0835477 1
2
 0.0860679 1
2
 1 0.123198
2
 1 0.231052
2
 1 0.433563
2
 1 0.49584
2
 1 0.744504
2
 0.174446 1
2
 0.125386 1
2
 0.0392838 1
2
 0.0371595 1
2
 0.0840378 1
2
 1 0.13053
2
 1 0.179861
2
 1 0.226404
2
 0.723391 1
2
 1 0.171001
2
 0.732934 1
2
 1 0.274359
2
 1 0.226771
2
 0.000236648 1
2
 0.221164 1
2
 0.0953176 1
2
 0.102205 1
2
 1 0.132504
2
 1 0.211187
2
 0.0290856 1
2
 1 0.395628
2
 0.924991 1
2
 0.0625871 1
2
 0.0450703 1
2
 0.120062 1
2
 0.178562 1
2
 1 0.267798
2
 1 0.246171
2
 1 0.148701
2
 1 0.462189
2
 1 0.230903
2
 1 0.418342
2
 1 0.383261
2
 1 0.123583
2
 1 0.0793223
2
 1 0.130676
2
 0.358363 1
2
 1 0.597283
2
 0.365896 1
2
 1 0.915469
2
 0.539126 1
2
 1 0.214581
2
 1 0.0466444
2
 1 0.0623691
2
 1 0.0614704
2
 0.122323 1
2
 0.166762 1
2
 0.231228 1
2
 0.645411 1
2
 1 0.164783
2
 1 0.404858
2
 1 0.783093
2
 0.0577685 1
2
 0.112155 1
2
 0.645706 1
2
 0.167067 1
2
 0.0978988 1
2
 1 0.596702
2
 1 0.147859
2
 0.131847 1
2
 0.0806194 1
2
 0.0442839 1
2
 1 0.36433
2
 1 0.212546
2
 1 0.1664
2
 1 0.116873
2
 1 0.643934
2
 1 0.816199
2
 1 0.366871
2
 0.63116 1
2
 1 0.0641148
2
 1 0.070856
4
 0.92829 0.232675 0.232675 1
4
 0.925584 0.229019 0.229019 1
4
 0.930534 0.233059 0.233059 1
4
 0.923403 0.229894 0.229894 1
4
 0.921487 0.226728 0.226728 1
4
 0.933831 0.238391 0.238391 1
4
 0.937562 0.239505 0.239505 1
4
 0.934356 0.236328 0.236328 1
4
 0.927196 0.233119 0.233119 1
4
 0.928967 0.235259 0.235259 1
4
 0.9393 0.241994 0.241994 1
4
 0.93069 0.237704 0.237704 1
4
 0.939142 0.24368 0.24368 1
4
 0.936719 0.243344 0.243344 1
4
 0.932049 0.239794 0.239794 1
4
 0.931633 0.232615 0.232615 1
4
 0.922575 0.226296 0.226296 1
4
 0.931581 0.231347 0.231347 1
4
 0.939829 0.239901 0.239901 1
4
 0.942893 0.244819 0.244819 1
4
 0.947298 0.24734 0.24734 1
4
 0.944802 0.242802 0.242802 1
4
 0.948629 0.246916 0.246916 1
4
 0.936563 0.235428 0.235428 1
4
 0.941572 0.239582 0.239582 1
4
 0.924077 0.232447 0.232447 1
4
 1 0.313923 0.313923 0.959367
4
 1 0.314281 0.314281 0.961417
4
 1 0.318587 0.318587 0.957646
4
 1 0.311625 0.311625 0.9632
4
 1 0.308958 0.308958 0.96147
4
 1 0.307927 0.307927 0.966993
4
 1 0.316255 0.316255 0.961471
4
 1 0.31273 0.31273 0.967374
4
 1 0.308278 0.308278 0.969059
4
 1 0.310224 0.310224 0.969331
4
 1 0.317015 0.317015 0.96358
4
 1 0.32161 0.32161 0.959477
4
 1 0.324358 0.324358 0.955069
4
 1 0.318604 0.318604 0.96358
4
 1 0.310916 0.310916 0.97594
4
 1 0.307074 0.307074 0.982097
4
 1 0.305374 0.305374 0.986907
4
 1 0.312475 0.312475 0.975941
4
 1 0.307418 0.307418 0.986907
4
 1 0.310015 0.310015 0.981712
4
 1 0.310969 0.310969 0.971457
4
 1 0.309608 0.309608 0.975611
4
 1 0.315053 0.315053 0.969496
4
 1 0.320457 0.320457 0.966127
4
 1 0.317268 0.317268 0.974573
4
 1 0.319968 0.319968 0.969878
4
 1 0.317462 0.317462 0.970259
4
 1 0.314962 0.314962 0.975996
4
 1 0.325393 0.325393 0.956841
4
 1 0.325008 0.325008 0.960071
4
 1 0.322144 0.322144 0.964989
4
 1 0.319621 0.319621 0.965368
4
 1 0.33012 0.33012 0.952981
4
 1 0.327785 0.327785 0.95566
4
 1 0.34527 0.34527 0.971518
4
 1 0.346763 0.346763 0.972501
4
 1 0.350988 0.350988 0.964236
4
 1 0.347345 0.347345 0.966947
4
 1 0.337399 0.337399 0.979075
4
 1 0.334185 0.334185 0.984865
4
 1 0.33357 0.33357 0.980835
4
 1 0.33167 0.33167 0.984532
4
 1 0.329906 0.329906 0.987966
4
 1 0.335091 0.335091 0.977756
4
 1 0.338304 0.338304 0.980286
4
 1 0.343035 0.343035 0.975509
4
 1 0.343611 0.343611 0.969937
4
 1 0.339222 0.339222 0.97321
4
 1 0.339766 0.339766 0.981277
4
 1 0.335864 0.335864 0.987801
4
 1 0.333205 0.333205 0.990466
4
 1 0.330791 0.330791 0.989187
4
 1 0.343256 0.343256 0.979901
4
 1 0.340561 0.340561 0.982987
4
 0.966583 0.278934 0.278934 1
4
 0.967778 0.278068 0.278068 1
4
 0.97088 0.282693 0.282693 1
4
 0.976183 0.285557 0.285557 1
4
 0.973775 0.281648 0.281648 1
4
 0.957024 0.272792 0.272792 1
4
 0.96317 0.275437 0.275437 1
4
 0.963223 0.2788 0.2788 1
4
 0.966257 0.280018 0.280018 1
4
 0.95611 0.273366 0.273366 1
4
 0.957884 0.272093 0.272093 1
4
 0.959769 0.270627 0.270627 1
4
 0.953218 0.263935 0.263935 1
4
 0.958047 0.267968 0.267968 1
4
 0.954502 0.267342 0.267342 1
4
 0.949318 0.262463 0.262463 1
4
 0.951184 0.2699 0.2699 1
4
 0.952949 0.268644 0.268644 1
4
 0.947719 0.265382 0.265382 1
4
 0.970336 0.278117 0.278117 1
4
 0.966096 0.274089 0.274089 1
4
 0.96263 0.271884 0.271884 1
4
 0.959069 0.271248 0.271248 1
4
 0.980956 0.319443 0.319443 1
4
 0.983825 0.320243 0.320243 1
4
 0.989698 0.326473 0.326473 1
4
 0.972346 0.31271 0.31271 1
4
 0.968097 0.308181 0.308181 1
4
 0.963325 0.304332 0.304332 1
4
 0.963541 0.306428 0.306428 1
4
 0.972511 0.311065 0.311065 1
4
 0.979636 0.316426 0.316426 1
4
 0.963488 0.302732 0.302732 1
4
 0.975355 0.311843 0.311843 1
4
 0.965926 0.302503 0.302503 1
4
 0.970166 0.306437 0.306437 1
4
 0.957138 0.246642 0.246642 1
4
 0.950017 0.242126 0.242126 1
4
 0.954454 0.246255 0.246255 1
4
 0.962041 0.251364 0.251364 1
4
 0.957568 0.248388 0.248388 1
4
 0.9648 0.252297 0.252297 1
4
 0.964097 0.250777 0.250777 1
4
 0.927195 0.236643 0.236643 1
4
 0.954603 0.296237 0.296237 1
4
 0.951124 0.295682 0.295682 1
4
 0.954817 0.298276 0.298276 1
4
 0.952461 0.293213 0.293213 1
4
 0.948512 0.289988 0.289988 1
4
 0.958954 0.301009 0.301009 1
4
 0.956588 0.2959 0.2959 1
4
 0.961165 0.298726 0.298726 1
4
 0.95546 0.300445 0.300445 1
4
 0.959009 0.295676 0.295676 1
4
 0.954604 0.291339 0.291339 1
4
 0.950485 0.289658 0.289658 1
4
 0.961062 0.27966 0.27966 1
4
 0.967505 0.282557 0.282557 1
4
 0.970116 0.285105 0.285105 1
4
 0.968483 0.285407 0.285407 1
4
 0.957346 0.275844 0.275844 1
4
 0.963331 0.282335 0.282335 1
4
 0.953965 0.274209 0.274209 1
4
 0.952038 0.274649 0.274649 1
4
 0.959929 0.280661 0.280661 1
4
 0.955894 0.278372 0.278372 1
4
 0.973172 0.286351 0.286351 1
4
 0.975854 0.286667 0.286667 1
4
 0.983826 0.317055 0.317055 1
4
 0.986371 0.316435 0.316435 1
4
 0.989755 0.321224 0.321224 1
4
 0.980683 0.311868 0.311868 1
4
 0.978592 0.311558 0.311558 1
4
 0.988421 0.321389 0.321389 1
4
 0.988366 0.323389 0.323389 1
4
 0.977274 0.311718 0.311718 1
4
 0.990978 0.320761 0.320761 1
4
 0.981895 0.311418 0.311418 1
4
 0.98333 0.311029 0.311029 1
4
 0.988922 0.316344 0.316344 1
4
 0.992316 0.318466 0.318466 1
4
 0.993096 0.320545 0.320545 1
4
 0.941256 0.236931 0.236931 1
4
 0.94152 0.238276 0.238276 1
4
 0.94629 0.241111 0.241111 1
4
 0.950443 0.24384 0.24384 1
4
 0.938293 0.26334 0.26334 1
4
 0.939505 0.267506 0.267506 1
4
 0.942411 0.268102 0.268102 1
4
 0.936872 0.259622 0.259622 1
4
 0.944213 0.26609 0.26609 1
4
 0.942305 0.266517 0.266517 1
4
 0.940773 0.261636 0.261636 1
4
 0.935243 0.255907 0.255907 1
4
 0.939454 0.259476 0.259476 1
4
 0.974156 0.289239 0.289239 1
4
 0.978487 0.289252 0.289252 1
4
 0.979751 0.293338 0.293338 1
4
 0.980302 0.292259 0.292259 1
4
 0.970551 0.289526 0.289526 1
4
 0.974976 0.292723 0.292723 1
4
 0.967341 0.286429 0.286429 1
4
 0.978102 0.293649 0.293649 1
4
 0.973006 0.292704 0.292704 1
4
 0.97115 0.292958 0.292958 1
4
 0.965388 0.286411 0.286411 1
4
 0.965712 0.288651 0.288651 1
4
 1 0.27669 0.27669 0.990787
4
 1 0.281003 0.281003 0.979667
4
 1 0.281033 0.281033 0.98325
4
 1 0.278925 0.278925 0.988786
4
 1 0.285647 0.285647 0.972106
4
 1 0.285678 0.285678 0.97566
4
 1 0.289081 0.289081 0.971179
4
 1 0.276928 0.276928 0.993852
4
 0.997691 0.271712 0.271712 1
4
 1 0.275049 0.275049 0.998663
4
 1 0.28337 0.28337 0.977195
4
 1 0.286777 0.286777 0.976264
4
 1 0.283752 0.283752 0.983526
4
 1 0.281275 0.281275 0.986291
4
 1 0.287132 0.287132 0.979009
4
 1 0.292538 0.292538 0.969817
4
 1 0.289505 0.289505 0.975442
4
 1 0.281623 0.281623 0.989065
4
 1 0.285574 0.285574 0.987401
4
 1 0.286451 0.286451 0.982699
4
 1 0.282531 0.282531 0.991122
4
 1 0.277271 0.277271 0.996646
4
 1 0.280065 0.280065 0.993908
4
 0.943681 0.27338 0.27338 1
4
 0.943522 0.270732 0.270732 1
4
 0.942251 0.273595 0.273595 1
4
 0.947716 0.276216 0.276216 1
4
 0.945324 0.276886 0.276886 1
4
 0.950808 0.279539 0.279539 1
4
 0.951288 0.281649 0.281649 1
4
 1 0.315957 0.315957 0.986133
4
 1 0.322574 0.322574 0.97682
4
 1 0.319522 0.319522 0.983038
4
 1 0.319216 0.319216 0.979346
4
 1 0.309369 0.309369 0.996039
4
 1 0.316168 0.316168 0.987852
4
 1 0.315865 0.315865 0.984142
4
 1 0.311922 0.311922 0.989461
4
 1 0.309799 0.309799 0.99699
4
 1 0.31289 0.31289 0.993581
4
 0.994886 0.30133 0.30133 1
4
 0.991818 0.30066 0.30066 1
4
 1 0.308658 0.308658 0.994529
4
 0.997907 0.305915 0.305915 1
4
 0.999702 0.304858 0.304858 1
4
 1 0.326614 0.326614 0.97359
4
 1 0.32279 0.32279 0.978522
4
 1 0.33042 0.33042 0.967378
4
 1 0.322481 0.322481 0.974847
4
 1 0.32588 0.32588 0.969661
4
 1 0.329121 0.329121 0.966129
4
 0.986044 0.293234 0.293234 1
4
 0.98815 0.293526 0.293526 1
4
 0.987872 0.296282 0.296282 1
4
 0.994999 0.298111 0.298111 1
4
 0.995725 0.300419 0.300419 1
4
 0.98328 0.28986 0.28986 1
4
 0.978763 0.285608 0.285608 1
4
 0.983003 0.292582 0.292582 1
4
 0.980854 0.285891 0.285891 1
4
 0.989039 0.291313 0.291313 1
4
 0.99221 0.294681 0.294681 1
4
 0.985381 0.28822 0.28822 1
4
 1 0.354257 0.354257 0.953789
4
 1 0.355376 0.355376 0.955344
4
 1 0.359954 0.359954 0.946268
4
 1 0.355949 0.355949 0.949461
4
 1 0.351854 0.351854 0.958406
4
 1 0.352422 0.352422 0.952504
4
 1 0.348202 0.348202 0.9611
4
 1 0.347487 0.347487 0.958513
4
 1 0.349301 0.349301 0.962667
4
 1 0.358088 0.358088 0.944993
4
 1 0.361148 0.361148 0.940652
4
 1 0.35713 0.35713 0.943826
4
 1 0.352835 0.352835 0.946479
4
 1 0.350286 0.350286 0.9509
4
 1 0.349146 0.349146 0.954163
4
 0.976404 0.279489 0.279489 1
4
 0.972082 0.277618 0.277618 1
4
 0.980854 0.283991 0.283991 1
4
 0.972137 0.275441 0.275441 1
4
 0.972847 0.274353 0.274353 1
4
 0.977831 0.276822 0.276822 1
4
 0.98091 0.281765 0.281765 1
4
 0.981241 0.280206 0.280206 1
4
 0.964254 0.269791 0.269791 1
4
 0.968541 0.272516 0.272516 1
4
 0.964362 0.271396 0.271396 1
4
 0.960472 0.264218 0.264218 1
4
 0.964958 0.268725 0.268725 1
4
 0.955309 0.260818 0.260818 1
4
 0.955952 0.263593 0.263593 1
4
 0.953807 0.260902 0.260902 1
4
 0.960795 0.26762 0.26762 1
4
 0.954236 0.260568 0.260568 1
4
 0.977002 0.300295 0.300295 1
4
 0.985376 0.30861 0.30861 1
4
 0.982669 0.304692 0.304692 1
4
 0.979693 0.305172 0.305172 1
4
 0.974262 0.299823 0.299823 1
4
 0.975577 0.296193 0.296193 1
4
 0.980576 0.296872 0.296872 1
4
 0.981457 0.299088 0.299088 1
4
 0.981236 0.30053 0.30053 1
4
 0.968264 0.292091 0.292091 1
4
 0.979364 0.300791 0.300791 1
4
 0.970986 0.295984 0.295984 1
4
 0.987758 0.30912 0.30912 1
4
 0.993822 0.313476 0.313476 1
4
 0.995051 0.316171 0.316171 1
4
 0.984767 0.309606 0.309606 1
4
 0.993766 0.317009 0.317009 1
4
 1 0.30564 0.30564 0.967318
4
 1 0.304439 0.304439 0.966069
4
 1 0.303317 0.303317 0.963685
4
 1 0.303687 0.303687 0.977529
4
 1 0.30029 0.30029 0.988958
4
 1 0.301325 0.301325 0.983973
4
 1 0.305604 0.305604 0.977804
4
 1 0.304266 0.304266 0.981986
4
 1 0.302582 0.302582 0.986795
4
 1 0.303422 0.303422 0.971619
4
 1 0.300975 0.300975 0.976048
4
 1 0.300638 0.300638 0.979782
4
 1 0.30225 0.30225 0.979287
4
 1 0.306542 0.306542 0.973148
4
 1 0.299792 0.299792 0.974788
4
 1 0.299074 0.299074 0.972655
4
 1 0.301117 0.301117 0.967969
4
 1 0.296661 0.296661 0.977089
4
 1 0.294296 0.294296 0.982204
4
 1 0.294864 0.294864 0.983971
4
 1 0.297041 0.297041 0.982978
4
 1 0.296257 0.296257 0.990569
4
 1 0.293918 0.293918 0.999172
4
 1 0.296821 0.296821 0.995085
4
 1 0.293766 0.293766 0.995588
4
 1 0.297845 0.297845 0.990069
4
 1 0.293591 0.293591 0.980055
4
 1 0.297972 0.297972 0.970254
4
 1 0.29391 0.29391 0.976101
4
 1 0.291813 0.291813 0.986959
4
 1 0.289144 0.289144 0.986847
4
 1 0.291568 0.291568 0.981211
4
 1 0.28777 0.28777 0.991346
4
 1 0.294534 0.294534 0.987736
4
 1 0.289699 0.289699 0.994302
4
 1 0.292058 0.292058 0.99274
4
 1 0.288324 0.288324 0.993129
4
 1 0.297443 0.297443 0.966719
4
 1 0.294215 0.294215 0.991737
4
 1 0.2983 0.2983 0.98624
4
 0.948357 0.270901 0.270901 1
4
 0.946815 0.26594 0.26594 1
4
 0.950275 0.275014 0.275014 1
4
 0.950648 0.276832 0.276832 1
4
 0.962519 0.285563 0.285563 1
4
 0.958151 0.281035 0.281035 1
4
 0.958474 0.283233 0.283233 1
4
 0.965549 0.291632 0.291632 1
4
 0.95885 0.285106 0.285106 1
4
 0.954499 0.280585 0.280585 1
4
 0.997295 0.286625 0.286625 1
4
 0.996568 0.283476 0.283476 1
4
 1 0.289384 0.289384 0.99833
4
 1 0.285685 0.285685 0.998721
4
 0.975476 0.264641 0.264641 1
4
 0.968816 0.260692 0.260692 1
4
 0.967784 0.257539 0.257539 1
4
 0.975312 0.262954 0.262954 1
4
 0.967023 0.258441 0.258441 1
4
 0.993774 0.283031 0.283031 1
4
 0.995281 0.288524 0.288524 1
4
 0.998864 0.289413 0.289413 1
4
 0.990264 0.284656 0.284656 1
4
 0.991432 0.28364 0.28364 1
4
 0.982015 0.271425 0.271425 1
4
 0.986104 0.273987 0.273987 1
4
 0.972522 0.264175 0.264175 1
4
 0.975694 0.267353 0.267353 1
4
 0.979043 0.266468 0.266468 1
4
 0.984887 0.271652 0.271652 1
4
 0.979867 0.27103 0.27103 1
4
 0.988932 0.277305 0.277305 1
4
 0.982676 0.274312 0.274312 1
4
 0.986602 0.277902 0.277902 1
4
 0.997745 0.282465 0.282465 1
4
 0.991824 0.277537 0.277537 1
4
 0.99071 0.280525 0.280525 1
4
 0.998014 0.329506 0.329506 1
4
 0.994322 0.327642 0.327642 1
4
 0.999753 0.329311 0.329311 1
4
 0.996503 0.325396 0.325396 1
4
 1 0.335948 0.335948 0.995262
4
 1 0.335287 0.335287 0.998957
4
 1 0.340513 0.340513 0.987746
4
 1 0.337839 0.337839 0.990857
4
 0.997957 0.331557 0.331557 1
4
 1 0.334764 0.334764 0.993921
4
 1 0.332114 0.332114 0.996603
4
 0.969033 0.263364 0.263364 1
4
 0.963066 0.259583 0.259583 1
4
 0.960043 0.255455 0.255455 1
4
 0.964095 0.257986 0.257986 1
4
 0.96523 0.265339 0.265339 1
4
 0.960257 0.260668 0.260668 1
4
 0.964742 0.266887 0.266887 1
4
 0.955148 0.257862 0.257862 1
4
 0.955094 0.259035 0.259035 1
4
 0.971211 0.267414 0.267414 1
4
 0.966207 0.262706 0.262706 1
4
 0.976351 0.270197 0.270197 1
4
 0.965231 0.263575 0.263575 1
4
 0.969739 0.269864 0.269864 1
4
 0.974707 0.272293 0.272293 1
4
 0.975364 0.271091 0.271091 1
4
 0.9559 0.255255 0.255255 1
4
 0.955149 0.256148 0.256148 1
4
 0.957244 0.254817 0.254817 1
4
 0.974214 0.273882 0.273882 1
4
 0.947138 0.249063 0.249063 1
4
 0.946394 0.249935 0.249935 1
4
 0.940302 0.246185 0.246185 1
4
 0.950815 0.252508 0.252508 1
4
 0.9529 0.251196 0.251196 1
4
 0.950013 0.254544 0.254544 1
4
 0.943952 0.24959 0.24959 1
4
 0.943899 0.250725 0.250725 1
4
 0.948467 0.255784 0.255784 1
4
 0.943686 0.251934 0.251934 1
4
 0.948893 0.255456 0.255456 1
4
 0.937665 0.247031 0.247031 1
4
 0.942839 0.250484 0.250484 1
4
 0.933201 0.242259 0.242259 1
4
 0.932886 0.2432 0.2432 1
4
 0.95071 0.245223 0.245223 1
4
 0.950389 0.246587 0.246587 1
4
 0.959343 0.25097 0.25097 1
4
 0.966589 0.254919 0.254919 1
4
 0.971322 0.259317 0.259317 1
4
 0.963067 0.254866 0.254866 1
4
 0.954561 0.249378 0.249378 1
4
 0.958589 0.251849 0.251849 1
4
 0.958266 0.253249 0.253249 1
4
 0.968654 0.254323 0.254323 1
4
 0.974765 0.258267 0.258267 1
4
 0.974108 0.260278 0.260278 1
4
 0.974546 0.259512 0.259512 1
4
 0.974054 0.256711 0.256711 1
4
 0.985719 0.264141 0.264141 1
4
 0.98417 0.265108 0.265108 1
4
 0.979979 0.261948 0.261948 1
4
 0.989712 0.268616 0.268616 1
4
 0.994894 0.271286 0.271286 1
4
 1 0.323523 0.323523 0.979787
4
 1 0.331171 0.331171 0.968628
4
 1 0.32938 0.32938 0.974247
4
 1 0.325678 0.325678 0.979567
4
 1 0.321864 0.321864 0.98453
4
 1 0.319075 0.319075 0.987741
4
 1 0.31642 0.31642 0.990463
4
 1 0.333218 0.333218 0.968031
4
 1 0.337253 0.337253 0.956521
4
 1 0.333713 0.333713 0.961205
4
 1 0.33886 0.33886 0.95765
4
 1 0.336593 0.336593 0.962935
4
 1 0.329345 0.329345 0.979183
4
 1 0.332631 0.332631 0.975835
4
 1 0.327691 0.327691 0.978963
4
 1 0.334148 0.334148 0.972772
4
 1 0.334774 0.334774 0.96852
4
 1 0.330552 0.330552 0.981386
4
 1 0.324227 0.324227 0.988964
4
 1 0.326921 0.326921 0.98852
4
 1 0.325643 0.325643 0.984531
4
 1 0.331949 0.331949 0.981717
4
 1 0.337508 0.337508 0.972772
4
 1 0.335372 0.335372 0.97496
4
 0.984273 0.296715 0.296715 1
4
 0.984603 0.300034 0.300034 1
4
 0.987538 0.300424 0.300424 1
4
 0.988093 0.299318 0.299318 1
4
 0.990872 0.30079 0.30079 1
4
 0.985266 0.303732 0.303732 1
4
 0.988426 0.302667 0.302667 1
4
 0.991315 0.308012 0.308012 1
4
 0.990481 0.305871 0.305871 1
4
 0.991092 0.309497 0.309497 1
4
 0.944746 0.256416 0.256416 1
4
 0.949106 0.258504 0.258504 1
4
 0.956059 0.265161 0.265161 1
4
 0.947348 0.259713 0.259713 1
4
 0.942626 0.253799 0.253799 1
4
 0.937875 0.249979 0.249979 1
4
 0.933828 0.248123 0.248123 1
4
 0.935245 0.250838 0.250838 1
4
 0.940881 0.254986 0.254986 1
4
 0.942203 0.252015 0.252015 1
4
 0.947402 0.255538 0.255538 1
4
 0.933409 0.246379 0.246379 1
4
 0.942627 0.251692 0.251692 1
4
 0.932676 0.244373 0.244373 1
4
 0.930792 0.247226 0.247226 1
4
 0.928652 0.242558 0.242558 1
4
 1 0.322487 0.322487 0.972169
4
 1 0.317681 0.317681 0.977752
4
 1 0.315139 0.315139 0.982651
4
 1 0.320385 0.320385 0.973042
4
 1 0.335765 0.335765 0.952073
4
 1 0.335927 0.335927 0.955286
4
 1 0.341109 0.341109 0.951753
4
 1 0.338444 0.338444 0.949511
4
 1 0.343181 0.343181 0.9477
4
 1 0.338827 0.338827 0.957005
4
 1 0.328969 0.328969 0.960233
4
 1 0.329128 0.329128 0.963474
4
 1 0.326642 0.326642 0.962933
4
 1 0.323763 0.323763 0.967865
4
 1 0.33224 0.33224 0.956735
4
 1 0.32973 0.32973 0.956197
4
 1 0.33473 0.33473 0.950951
4
 1 0.324512 0.324512 0.963798
4
 1 0.344816 0.344816 0.948819
4
 1 0.347124 0.347124 0.948819
4
 1 0.344616 0.344616 0.953252
4
 1 0.340442 0.340442 0.958135
4
 0.993434 0.306269 0.306269 1
4
 0.994159 0.30455 0.30455 1
4
 0.99757 0.308644 0.308644 1
4
 0.996338 0.311677 0.311677 1
4
 0.998409 0.316556 0.316556 1
4
 1 0.317956 0.317956 0.998
4
 1 0.316577 0.316577 0.996768
4
 1 0.314642 0.314642 0.997607
4
 0.999645 0.311912 0.311912 1
4
 1 0.320293 0.320293 0.996769
4
 0.998352 0.320124 0.320124 1
4
 1 0.322954 0.322954 0.996321
4
 1 0.342123 0.342123 0.946583
4
 1 0.349232 0.349232 0.944779
4
 1 0.339314 0.339314 0.986415
4
 1 0.333984 0.333984 0.992192
4
 1 0.328302 0.328302 0.988853
4
 1 0.294928 0.294928 0.999846
4
 0.999649 0.291789 0.291789 1
4
 0.994386 0.291687 0.291687 1
4
 0.991042 0.286993 0.286993 1
4
 1 0.298869 0.298869 0.990737
4
 0.99847 0.295778 0.295778 1
4
 1 0.298698 0.298698 0.998332
4
 1 0.300115 0.300115 0.993578
4
 0.995894 0.295864 0.295864 1
4
 0.98904 0.289377 0.289377 1
4
 1 0.355849 0.355849 0.942131
4
 1 0.34903 0.34903 0.949193
4
 0.977659 0.30654 0.30654 1
4
 0.969894 0.302683 0.302683 1
4
 0.97093 0.301825 0.301825 1
4
 0.974151 0.306619 0.306619 1
4
 0.973661 0.300791 0.300791 1
4
 0.972349 0.301448 0.301448 1
4
 0.988035 0.313477 0.313477 1
4
 0.964626 0.297655 0.297655 1
4
 0.967827 0.302382 0.302382 1
4
 0.959171 0.294121 0.294121 1
4
 0.966959 0.296165 0.296165 1
4
 0.961545 0.288906 0.288906 1
4
 0.962031 0.291086 0.291086 1
4
 0.960195 0.293288 0.293288 1
4
 0.960735 0.291721 0.291721 1
4
 0.993654 0.318833 0.318833 1
4
 0.994435 0.320915 0.320915 1
4
 1 0.313715 0.313715 0.983037
4
 1 0.318938 0.318938 0.973424
4
 1 0.313948 0.313948 0.979565
4
 1 0.307465 0.307465 0.993692
4
 1 0.308827 0.308827 0.989682
4
 1 0.311435 0.311435 0.984472
4
 0.933565 0.252129 0.252129 1
4
 0.937821 0.254064 0.254064 1
4
 0.939191 0.256297 0.256297 1
4
 0.939138 0.257892 0.257892 1
4
 0.948625 0.263065 0.263065 1
4
 0.948571 0.264702 0.264702 1
4
 0.943419 0.259872 0.259872 1
4
 1 0.307127 0.307127 0.977585
4
 1 0.300979 0.300979 0.996149
4
 0.999815 0.301601 0.301601 1
4
 1 0.302993 0.302993 0.996149
4
 1 0.304089 0.304089 0.986574
4
 1 0.30443 0.30443 0.991406
4
 0.950645 0.288134 0.288134 1
4
 0.955302 0.288258 0.288258 1
4
 0.950539 0.285953 0.285953 1
4
 0.946438 0.284303 0.284303 1
4
 0.949846 0.28187 0.28187 1
4
 0.945111 0.279616 0.279616 1
4
 0.955356 0.284572 0.284572 1
4
 0.951074 0.284426 0.284426 1
4
 1 0.343433 0.343433 0.966457
4
 1 0.342728 0.342728 0.963856
4
 1 0.339047 0.339047 0.969718
4
 1 0.339682 0.339682 0.96548
4
 1 0.345381 0.345381 0.956899
4
 1 0.342311 0.342311 0.958512
4
 1 0.344966 0.344966 0.962774
4
 1 0.34126 0.34126 0.96863
4
 1 0.341198 0.341198 0.961801
4
 1 0.323865 0.323865 0.992747
4
 1 0.322599 0.322599 0.988741
4
 1 0.319804 0.319804 0.991966
4
 1 0.328469 0.328469 0.998115
4
 1 0.328939 0.328939 0.993585
4
 0.997847 0.323067 0.323067 1
4
 1 0.324228 0.324228 0.997609
4
 1 0.326089 0.326089 0.996826
4
 1 0.289458 0.289458 0.982865
4
 1 0.287933 0.287933 0.983804
4
 1 0.285688 0.285688 0.993017
4
 1 0.283993 0.283993 0.992236
4
 1 0.293389 0.293389 0.972544
4
 1 0.291843 0.291843 0.973473
4
 1 0.290347 0.290347 0.978185
4
 1 0.310045 0.310045 0.999625
4
 1 0.3212 0.3212 0.98752
4
 1 0.315767 0.315767 0.99347
4
 0.996513 0.280057 0.280057 1
4
 1 0.282643 0.282643 0.99676
4
 0.998754 0.280596 0.280596 1
4
 0.984722 0.26992 0.26992 1
4
 0.983506 0.267173 0.267173 1
4
 0.979318 0.263989 0.263989 1
4
 0.989377 0.272371 0.272371 1
4
 0.992827 0.275701 0.275701 1
4
 1 0.31414 0.31414 0.975229
4
 1 0.305115 0.305115 0.995423
4
 1 0.309056 0.309056 0.986187
4
 0.979866 0.275127 0.275127 1
4
 0.98262 0.279726 0.279726 1
4
 0.98378 0.278727 0.278727 1
4
 0.984443 0.277497 0.277497 1
4
 0.985714 0.28472 0.28472 1
4
 0.98721 0.282135 0.282135 1
4
 0.99333 0.272279 0.272279 1
4
 0.983949 0.266386 0.266386 1
4
 0.991602 0.272895 0.272895 1
4
 1 0.278164 0.278164 0.99872
4
 0.996794 0.275608 0.275608 1
4
 0.99954 0.279151 0.279151 1
4
 1 0.337533 0.337533 0.967651
4
 0.928236 0.239652 0.239652 1
1
 1

